NAME : cluster_netgen
COMMENT : cl=6
TYPE : TSP
DIMENSION : 50
EDGE_WEIGHT_TYPE : EUC_2D
NODE_COORD_SECTION
1 365895 664526
2 434582 631573
3 374655 711156
4 301445 672856
5 272710 648698
6 472475 643007
7 377943 605062
8 504071 669370
9 786379 13790
10 722301 106205
11 842285 22
12 812554 55275
13 809545 3311
14 816471 82474
15 815565 118660
16 811297 36183
17 32144 356265
18 147287 444142
19 126314 426055
20 141071 321818
21 140645 425152
22 171643 439910
23 61275 424313
24 111646 383693
25 209906 376807
26 45551 458712
27 249439 593640
28 149067 638256
29 196496 642120
30 157646 651756
31 241725 628481
32 171235 721890
33 158022 606333
34 172206 724000
35 855563 924012
36 898449 827902
37 977580 823220
38 913429 862179
39 940819 880970
40 956214 764006
41 911675 924111
42 953871 869359
43 540563 169746
44 671587 147864
45 549445 189136
46 638946 109232
47 691953 220314
48 581343 119492
49 622042 184463
50 565282 212237

EOF
